c Generated with `cnfgen`
c (C) 2012-2018 Massimo Lauria <lauria.massimo@gmail.com>
c https://massimolauria.net/cnfgen
c
c COMMAND LINE: cnfgen tseitin --gnd 50 5 --charge randomodd
c
p cnf 125 800
1 2 3 4 5 0
1 2 3 -4 -5 0
1 2 -3 4 -5 0
1 2 -3 -4 5 0
1 -2 3 4 -5 0
1 -2 3 -4 5 0
1 -2 -3 4 5 0
1 -2 -3 -4 -5 0
-1 2 3 4 -5 0
-1 2 3 -4 5 0
-1 2 -3 4 5 0
-1 2 -3 -4 -5 0
-1 -2 3 4 5 0
-1 -2 3 -4 -5 0
-1 -2 -3 4 -5 0
-1 -2 -3 -4 5 0
6 7 8 9 10 0
6 7 8 -9 -10 0
6 7 -8 9 -10 0
6 7 -8 -9 10 0
6 -7 8 9 -10 0
6 -7 8 -9 10 0
6 -7 -8 9 10 0
6 -7 -8 -9 -10 0
-6 7 8 9 -10 0
-6 7 8 -9 10 0
-6 7 -8 9 10 0
-6 7 -8 -9 -10 0
-6 -7 8 9 10 0
-6 -7 8 -9 -10 0
-6 -7 -8 9 -10 0
-6 -7 -8 -9 10 0
11 12 13 14 -15 0
11 12 13 -14 15 0
11 12 -13 14 15 0
11 12 -13 -14 -15 0
11 -12 13 14 15 0
11 -12 13 -14 -15 0
11 -12 -13 14 -15 0
11 -12 -13 -14 15 0
-11 12 13 14 15 0
-11 12 13 -14 -15 0
-11 12 -13 14 -15 0
-11 12 -13 -14 15 0
-11 -12 13 14 -15 0
-11 -12 13 -14 15 0
-11 -12 -13 14 15 0
-11 -12 -13 -14 -15 0
11 16 17 18 19 0
11 16 17 -18 -19 0
11 16 -17 18 -19 0
11 16 -17 -18 19 0
11 -16 17 18 -19 0
11 -16 17 -18 19 0
11 -16 -17 18 19 0
11 -16 -17 -18 -19 0
-11 16 17 18 -19 0
-11 16 17 -18 19 0
-11 16 -17 18 19 0
-11 16 -17 -18 -19 0
-11 -16 17 18 19 0
-11 -16 17 -18 -19 0
-11 -16 -17 18 -19 0
-11 -16 -17 -18 19 0
20 21 22 23 24 0
20 21 22 -23 -24 0
20 21 -22 23 -24 0
20 21 -22 -23 24 0
20 -21 22 23 -24 0
20 -21 22 -23 24 0
20 -21 -22 23 24 0
20 -21 -22 -23 -24 0
-20 21 22 23 -24 0
-20 21 22 -23 24 0
-20 21 -22 23 24 0
-20 21 -22 -23 -24 0
-20 -21 22 23 24 0
-20 -21 22 -23 -24 0
-20 -21 -22 23 -24 0
-20 -21 -22 -23 24 0
12 20 25 26 27 0
12 20 25 -26 -27 0
12 20 -25 26 -27 0
12 20 -25 -26 27 0
12 -20 25 26 -27 0
12 -20 25 -26 27 0
12 -20 -25 26 27 0
12 -20 -25 -26 -27 0
-12 20 25 26 -27 0
-12 20 25 -26 27 0
-12 20 -25 26 27 0
-12 20 -25 -26 -27 0
-12 -20 25 26 27 0
-12 -20 25 -26 -27 0
-12 -20 -25 26 -27 0
-12 -20 -25 -26 27 0
28 29 30 31 32 0
28 29 30 -31 -32 0
28 29 -30 31 -32 0
28 29 -30 -31 32 0
28 -29 30 31 -32 0
28 -29 30 -31 32 0
28 -29 -30 31 32 0
28 -29 -30 -31 -32 0
-28 29 30 31 -32 0
-28 29 30 -31 32 0
-28 29 -30 31 32 0
-28 29 -30 -31 -32 0
-28 -29 30 31 32 0
-28 -29 30 -31 -32 0
-28 -29 -30 31 -32 0
-28 -29 -30 -31 32 0
6 33 34 35 36 0
6 33 34 -35 -36 0
6 33 -34 35 -36 0
6 33 -34 -35 36 0
6 -33 34 35 -36 0
6 -33 34 -35 36 0
6 -33 -34 35 36 0
6 -33 -34 -35 -36 0
-6 33 34 35 -36 0
-6 33 34 -35 36 0
-6 33 -34 35 36 0
-6 33 -34 -35 -36 0
-6 -33 34 35 36 0
-6 -33 34 -35 -36 0
-6 -33 -34 35 -36 0
-6 -33 -34 -35 36 0
1 37 38 39 40 0
1 37 38 -39 -40 0
1 37 -38 39 -40 0
1 37 -38 -39 40 0
1 -37 38 39 -40 0
1 -37 38 -39 40 0
1 -37 -38 39 40 0
1 -37 -38 -39 -40 0
-1 37 38 39 -40 0
-1 37 38 -39 40 0
-1 37 -38 39 40 0
-1 37 -38 -39 -40 0
-1 -37 38 39 40 0
-1 -37 38 -39 -40 0
-1 -37 -38 39 -40 0
-1 -37 -38 -39 40 0
41 42 43 44 -45 0
41 42 43 -44 45 0
41 42 -43 44 45 0
41 42 -43 -44 -45 0
41 -42 43 44 45 0
41 -42 43 -44 -45 0
41 -42 -43 44 -45 0
41 -42 -43 -44 45 0
-41 42 43 44 45 0
-41 42 43 -44 -45 0
-41 42 -43 44 -45 0
-41 42 -43 -44 45 0
-41 -42 43 44 -45 0
-41 -42 43 -44 45 0
-41 -42 -43 44 45 0
-41 -42 -43 -44 -45 0
7 46 47 48 49 0
7 46 47 -48 -49 0
7 46 -47 48 -49 0
7 46 -47 -48 49 0
7 -46 47 48 -49 0
7 -46 47 -48 49 0
7 -46 -47 48 49 0
7 -46 -47 -48 -49 0
-7 46 47 48 -49 0
-7 46 47 -48 49 0
-7 46 -47 48 49 0
-7 46 -47 -48 -49 0
-7 -46 47 48 49 0
-7 -46 47 -48 -49 0
-7 -46 -47 48 -49 0
-7 -46 -47 -48 49 0
8 25 50 51 -52 0
8 25 50 -51 52 0
8 25 -50 51 52 0
8 25 -50 -51 -52 0
8 -25 50 51 52 0
8 -25 50 -51 -52 0
8 -25 -50 51 -52 0
8 -25 -50 -51 52 0
-8 25 50 51 52 0
-8 25 50 -51 -52 0
-8 25 -50 51 -52 0
-8 25 -50 -51 52 0
-8 -25 50 51 -52 0
-8 -25 50 -51 52 0
-8 -25 -50 51 52 0
-8 -25 -50 -51 -52 0
53 54 55 56 -57 0
53 54 55 -56 57 0
53 54 -55 56 57 0
53 54 -55 -56 -57 0
53 -54 55 56 57 0
53 -54 55 -56 -57 0
53 -54 -55 56 -57 0
53 -54 -55 -56 57 0
-53 54 55 56 57 0
-53 54 55 -56 -57 0
-53 54 -55 56 -57 0
-53 54 -55 -56 57 0
-53 -54 55 56 -57 0
-53 -54 55 -56 57 0
-53 -54 -55 56 57 0
-53 -54 -55 -56 -57 0
2 28 58 59 60 0
2 28 58 -59 -60 0
2 28 -58 59 -60 0
2 28 -58 -59 60 0
2 -28 58 59 -60 0
2 -28 58 -59 60 0
2 -28 -58 59 60 0
2 -28 -58 -59 -60 0
-2 28 58 59 -60 0
-2 28 58 -59 60 0
-2 28 -58 59 60 0
-2 28 -58 -59 -60 0
-2 -28 58 59 60 0
-2 -28 58 -59 -60 0
-2 -28 -58 59 -60 0
-2 -28 -58 -59 60 0
3 13 33 37 -61 0
3 13 33 -37 61 0
3 13 -33 37 61 0
3 13 -33 -37 -61 0
3 -13 33 37 61 0
3 -13 33 -37 -61 0
3 -13 -33 37 -61 0
3 -13 -33 -37 61 0
-3 13 33 37 61 0
-3 13 33 -37 -61 0
-3 13 -33 37 -61 0
-3 13 -33 -37 61 0
-3 -13 33 37 -61 0
-3 -13 33 -37 61 0
-3 -13 -33 37 61 0
-3 -13 -33 -37 -61 0
9 21 62 63 -64 0
9 21 62 -63 64 0
9 21 -62 63 64 0
9 21 -62 -63 -64 0
9 -21 62 63 64 0
9 -21 62 -63 -64 0
9 -21 -62 63 -64 0
9 -21 -62 -63 64 0
-9 21 62 63 64 0
-9 21 62 -63 -64 0
-9 21 -62 63 -64 0
-9 21 -62 -63 64 0
-9 -21 62 63 -64 0
-9 -21 62 -63 64 0
-9 -21 -62 63 64 0
-9 -21 -62 -63 -64 0
38 41 65 66 -67 0
38 41 65 -66 67 0
38 41 -65 66 67 0
38 41 -65 -66 -67 0
38 -41 65 66 67 0
38 -41 65 -66 -67 0
38 -41 -65 66 -67 0
38 -41 -65 -66 67 0
-38 41 65 66 67 0
-38 41 65 -66 -67 0
-38 41 -65 66 -67 0
-38 41 -65 -66 67 0
-38 -41 65 66 -67 0
-38 -41 65 -66 67 0
-38 -41 -65 66 67 0
-38 -41 -65 -66 -67 0
22 34 68 69 -70 0
22 34 68 -69 70 0
22 34 -68 69 70 0
22 34 -68 -69 -70 0
22 -34 68 69 70 0
22 -34 68 -69 -70 0
22 -34 -68 69 -70 0
22 -34 -68 -69 70 0
-22 34 68 69 70 0
-22 34 68 -69 -70 0
-22 34 -68 69 -70 0
-22 34 -68 -69 70 0
-22 -34 68 69 -70 0
-22 -34 68 -69 70 0
-22 -34 -68 69 70 0
-22 -34 -68 -69 -70 0
39 53 71 72 -73 0
39 53 71 -72 73 0
39 53 -71 72 73 0
39 53 -71 -72 -73 0
39 -53 71 72 73 0
39 -53 71 -72 -73 0
39 -53 -71 72 -73 0
39 -53 -71 -72 73 0
-39 53 71 72 73 0
-39 53 71 -72 -73 0
-39 53 -71 72 -73 0
-39 53 -71 -72 73 0
-39 -53 71 72 -73 0
-39 -53 71 -72 73 0
-39 -53 -71 72 73 0
-39 -53 -71 -72 -73 0
40 62 74 75 76 0
40 62 74 -75 -76 0
40 62 -74 75 -76 0
40 62 -74 -75 76 0
40 -62 74 75 -76 0
40 -62 74 -75 76 0
40 -62 -74 75 76 0
40 -62 -74 -75 -76 0
-40 62 74 75 -76 0
-40 62 74 -75 76 0
-40 62 -74 75 76 0
-40 62 -74 -75 -76 0
-40 -62 74 75 76 0
-40 -62 74 -75 -76 0
-40 -62 -74 75 -76 0
-40 -62 -74 -75 76 0
77 78 79 80 81 0
77 78 79 -80 -81 0
77 78 -79 80 -81 0
77 78 -79 -80 81 0
77 -78 79 80 -81 0
77 -78 79 -80 81 0
77 -78 -79 80 81 0
77 -78 -79 -80 -81 0
-77 78 79 80 -81 0
-77 78 79 -80 81 0
-77 78 -79 80 81 0
-77 78 -79 -80 -81 0
-77 -78 79 80 81 0
-77 -78 79 -80 -81 0
-77 -78 -79 80 -81 0
-77 -78 -79 -80 81 0
46 65 74 82 -83 0
46 65 74 -82 83 0
46 65 -74 82 83 0
46 65 -74 -82 -83 0
46 -65 74 82 83 0
46 -65 74 -82 -83 0
46 -65 -74 82 -83 0
46 -65 -74 -82 83 0
-46 65 74 82 83 0
-46 65 74 -82 -83 0
-46 65 -74 82 -83 0
-46 65 -74 -82 83 0
-46 -65 74 82 -83 0
-46 -65 74 -82 83 0
-46 -65 -74 82 83 0
-46 -65 -74 -82 -83 0
50 75 84 85 -86 0
50 75 84 -85 86 0
50 75 -84 85 86 0
50 75 -84 -85 -86 0
50 -75 84 85 86 0
50 -75 84 -85 -86 0
50 -75 -84 85 -86 0
50 -75 -84 -85 86 0
-50 75 84 85 86 0
-50 75 84 -85 -86 0
-50 75 -84 85 -86 0
-50 75 -84 -85 86 0
-50 -75 84 85 -86 0
-50 -75 84 -85 86 0
-50 -75 -84 85 86 0
-50 -75 -84 -85 -86 0
4 51 61 87 -88 0
4 51 61 -87 88 0
4 51 -61 87 88 0
4 51 -61 -87 -88 0
4 -51 61 87 88 0
4 -51 61 -87 -88 0
4 -51 -61 87 -88 0
4 -51 -61 -87 88 0
-4 51 61 87 88 0
-4 51 61 -87 -88 0
-4 51 -61 87 -88 0
-4 51 -61 -87 88 0
-4 -51 61 87 -88 0
-4 -51 61 -87 88 0
-4 -51 -61 87 88 0
-4 -51 -61 -87 -88 0
29 89 90 91 -92 0
29 89 90 -91 92 0
29 89 -90 91 92 0
29 89 -90 -91 -92 0
29 -89 90 91 92 0
29 -89 90 -91 -92 0
29 -89 -90 91 -92 0
29 -89 -90 -91 92 0
-29 89 90 91 92 0
-29 89 90 -91 -92 0
-29 89 -90 91 -92 0
-29 89 -90 -91 92 0
-29 -89 90 91 -92 0
-29 -89 90 -91 92 0
-29 -89 -90 91 92 0
-29 -89 -90 -91 -92 0
35 93 94 95 96 0
35 93 94 -95 -96 0
35 93 -94 95 -96 0
35 93 -94 -95 96 0
35 -93 94 95 -96 0
35 -93 94 -95 96 0
35 -93 -94 95 96 0
35 -93 -94 -95 -96 0
-35 93 94 95 -96 0
-35 93 94 -95 96 0
-35 93 -94 95 96 0
-35 93 -94 -95 -96 0
-35 -93 94 95 96 0
-35 -93 94 -95 -96 0
-35 -93 -94 95 -96 0
-35 -93 -94 -95 96 0
66 89 97 98 99 0
66 89 97 -98 -99 0
66 89 -97 98 -99 0
66 89 -97 -98 99 0
66 -89 97 98 -99 0
66 -89 97 -98 99 0
66 -89 -97 98 99 0
66 -89 -97 -98 -99 0
-66 89 97 98 -99 0
-66 89 97 -98 99 0
-66 89 -97 98 99 0
-66 89 -97 -98 -99 0
-66 -89 97 98 99 0
-66 -89 97 -98 -99 0
-66 -89 -97 98 -99 0
-66 -89 -97 -98 99 0
14 93 100 101 -102 0
14 93 100 -101 102 0
14 93 -100 101 102 0
14 93 -100 -101 -102 0
14 -93 100 101 102 0
14 -93 100 -101 -102 0
14 -93 -100 101 -102 0
14 -93 -100 -101 102 0
-14 93 100 101 102 0
-14 93 100 -101 -102 0
-14 93 -100 101 -102 0
-14 93 -100 -101 102 0
-14 -93 100 101 -102 0
-14 -93 100 -101 102 0
-14 -93 -100 101 102 0
-14 -93 -100 -101 -102 0
16 84 94 103 -104 0
16 84 94 -103 104 0
16 84 -94 103 104 0
16 84 -94 -103 -104 0
16 -84 94 103 104 0
16 -84 94 -103 -104 0
16 -84 -94 103 -104 0
16 -84 -94 -103 104 0
-16 84 94 103 104 0
-16 84 94 -103 -104 0
-16 84 -94 103 -104 0
-16 84 -94 -103 104 0
-16 -84 94 103 -104 0
-16 -84 94 -103 104 0
-16 -84 -94 103 104 0
-16 -84 -94 -103 -104 0
58 87 105 106 107 0
58 87 105 -106 -107 0
58 87 -105 106 -107 0
58 87 -105 -106 107 0
58 -87 105 106 -107 0
58 -87 105 -106 107 0
58 -87 -105 106 107 0
58 -87 -105 -106 -107 0
-58 87 105 106 -107 0
-58 87 105 -106 107 0
-58 87 -105 106 107 0
-58 87 -105 -106 -107 0
-58 -87 105 106 107 0
-58 -87 105 -106 -107 0
-58 -87 -105 106 -107 0
-58 -87 -105 -106 107 0
36 54 63 100 108 0
36 54 63 -100 -108 0
36 54 -63 100 -108 0
36 54 -63 -100 108 0
36 -54 63 100 -108 0
36 -54 63 -100 108 0
36 -54 -63 100 108 0
36 -54 -63 -100 -108 0
-36 54 63 100 -108 0
-36 54 63 -100 108 0
-36 54 -63 100 108 0
-36 54 -63 -100 -108 0
-36 -54 63 100 108 0
-36 -54 63 -100 -108 0
-36 -54 -63 100 -108 0
-36 -54 -63 -100 108 0
30 42 85 109 -110 0
30 42 85 -109 110 0
30 42 -85 109 110 0
30 42 -85 -109 -110 0
30 -42 85 109 110 0
30 -42 85 -109 -110 0
30 -42 -85 109 -110 0
30 -42 -85 -109 110 0
-30 42 85 109 110 0
-30 42 85 -109 -110 0
-30 42 -85 109 -110 0
-30 42 -85 -109 110 0
-30 -42 85 109 -110 0
-30 -42 85 -109 110 0
-30 -42 -85 109 110 0
-30 -42 -85 -109 -110 0
64 71 90 105 -111 0
64 71 90 -105 111 0
64 71 -90 105 111 0
64 71 -90 -105 -111 0
64 -71 90 105 111 0
64 -71 90 -105 -111 0
64 -71 -90 105 -111 0
64 -71 -90 -105 111 0
-64 71 90 105 111 0
-64 71 90 -105 -111 0
-64 71 -90 105 -111 0
-64 71 -90 -105 111 0
-64 -71 90 105 -111 0
-64 -71 90 -105 111 0
-64 -71 -90 105 111 0
-64 -71 -90 -105 -111 0
101 109 112 113 114 0
101 109 112 -113 -114 0
101 109 -112 113 -114 0
101 109 -112 -113 114 0
101 -109 112 113 -114 0
101 -109 112 -113 114 0
101 -109 -112 113 114 0
101 -109 -112 -113 -114 0
-101 109 112 113 -114 0
-101 109 112 -113 114 0
-101 109 -112 113 114 0
-101 109 -112 -113 -114 0
-101 -109 112 113 114 0
-101 -109 112 -113 -114 0
-101 -109 -112 113 -114 0
-101 -109 -112 -113 114 0
55 77 82 106 115 0
55 77 82 -106 -115 0
55 77 -82 106 -115 0
55 77 -82 -106 115 0
55 -77 82 106 -115 0
55 -77 82 -106 115 0
55 -77 -82 106 115 0
55 -77 -82 -106 -115 0
-55 77 82 106 -115 0
-55 77 82 -106 115 0
-55 77 -82 106 115 0
-55 77 -82 -106 -115 0
-55 -77 82 106 115 0
-55 -77 82 -106 -115 0
-55 -77 -82 106 -115 0
-55 -77 -82 -106 115 0
17 107 110 116 -117 0
17 107 110 -116 117 0
17 107 -110 116 117 0
17 107 -110 -116 -117 0
17 -107 110 116 117 0
17 -107 110 -116 -117 0
17 -107 -110 116 -117 0
17 -107 -110 -116 117 0
-17 107 110 116 117 0
-17 107 110 -116 -117 0
-17 107 -110 116 -117 0
-17 107 -110 -116 117 0
-17 -107 110 116 -117 0
-17 -107 110 -116 117 0
-17 -107 -110 116 117 0
-17 -107 -110 -116 -117 0
59 68 95 112 118 0
59 68 95 -112 -118 0
59 68 -95 112 -118 0
59 68 -95 -112 118 0
59 -68 95 112 -118 0
59 -68 95 -112 118 0
59 -68 -95 112 118 0
59 -68 -95 -112 -118 0
-59 68 95 112 -118 0
-59 68 95 -112 118 0
-59 68 -95 112 118 0
-59 68 -95 -112 -118 0
-59 -68 95 112 118 0
-59 -68 95 -112 -118 0
-59 -68 -95 112 -118 0
-59 -68 -95 -112 118 0
31 43 60 88 -119 0
31 43 60 -88 119 0
31 43 -60 88 119 0
31 43 -60 -88 -119 0
31 -43 60 88 119 0
31 -43 60 -88 -119 0
31 -43 -60 88 -119 0
31 -43 -60 -88 119 0
-31 43 60 88 119 0
-31 43 60 -88 -119 0
-31 43 -60 88 -119 0
-31 43 -60 -88 119 0
-31 -43 60 88 -119 0
-31 -43 60 -88 119 0
-31 -43 -60 88 119 0
-31 -43 -60 -88 -119 0
5 47 102 120 -121 0
5 47 102 -120 121 0
5 47 -102 120 121 0
5 47 -102 -120 -121 0
5 -47 102 120 121 0
5 -47 102 -120 -121 0
5 -47 -102 120 -121 0
5 -47 -102 -120 121 0
-5 47 102 120 121 0
-5 47 102 -120 -121 0
-5 47 -102 120 -121 0
-5 47 -102 -120 121 0
-5 -47 102 120 -121 0
-5 -47 102 -120 121 0
-5 -47 -102 120 121 0
-5 -47 -102 -120 -121 0
23 69 86 111 -122 0
23 69 86 -111 122 0
23 69 -86 111 122 0
23 69 -86 -111 -122 0
23 -69 86 111 122 0
23 -69 86 -111 -122 0
23 -69 -86 111 -122 0
23 -69 -86 -111 122 0
-23 69 86 111 122 0
-23 69 86 -111 -122 0
-23 69 -86 111 -122 0
-23 69 -86 -111 122 0
-23 -69 86 111 -122 0
-23 -69 86 -111 122 0
-23 -69 -86 111 122 0
-23 -69 -86 -111 -122 0
48 78 97 108 123 0
48 78 97 -108 -123 0
48 78 -97 108 -123 0
48 78 -97 -108 123 0
48 -78 97 108 -123 0
48 -78 97 -108 123 0
48 -78 -97 108 123 0
48 -78 -97 -108 -123 0
-48 78 97 108 -123 0
-48 78 97 -108 123 0
-48 78 -97 108 123 0
-48 78 -97 -108 -123 0
-48 -78 97 108 123 0
-48 -78 97 -108 -123 0
-48 -78 -97 108 -123 0
-48 -78 -97 -108 123 0
56 72 76 113 -119 0
56 72 76 -113 119 0
56 72 -76 113 119 0
56 72 -76 -113 -119 0
56 -72 76 113 119 0
56 -72 76 -113 -119 0
56 -72 -76 113 -119 0
56 -72 -76 -113 119 0
-56 72 76 113 119 0
-56 72 76 -113 -119 0
-56 72 -76 113 -119 0
-56 72 -76 -113 119 0
-56 -72 76 113 -119 0
-56 -72 76 -113 119 0
-56 -72 -76 113 119 0
-56 -72 -76 -113 -119 0
91 98 103 123 124 0
91 98 103 -123 -124 0
91 98 -103 123 -124 0
91 98 -103 -123 124 0
91 -98 103 123 -124 0
91 -98 103 -123 124 0
91 -98 -103 123 124 0
91 -98 -103 -123 -124 0
-91 98 103 123 -124 0
-91 98 103 -123 124 0
-91 98 -103 123 124 0
-91 98 -103 -123 -124 0
-91 -98 103 123 124 0
-91 -98 103 -123 -124 0
-91 -98 -103 123 -124 0
-91 -98 -103 -123 124 0
67 99 120 122 -124 0
67 99 120 -122 124 0
67 99 -120 122 124 0
67 99 -120 -122 -124 0
67 -99 120 122 124 0
67 -99 120 -122 -124 0
67 -99 -120 122 -124 0
67 -99 -120 -122 124 0
-67 99 120 122 124 0
-67 99 120 -122 -124 0
-67 99 -120 122 -124 0
-67 99 -120 -122 124 0
-67 -99 120 122 -124 0
-67 -99 120 -122 124 0
-67 -99 -120 122 124 0
-67 -99 -120 -122 -124 0
18 24 116 118 -125 0
18 24 116 -118 125 0
18 24 -116 118 125 0
18 24 -116 -118 -125 0
18 -24 116 118 125 0
18 -24 116 -118 -125 0
18 -24 -116 118 -125 0
18 -24 -116 -118 125 0
-18 24 116 118 125 0
-18 24 116 -118 -125 0
-18 24 -116 118 -125 0
-18 24 -116 -118 125 0
-18 -24 116 118 -125 0
-18 -24 116 -118 125 0
-18 -24 -116 118 125 0
-18 -24 -116 -118 -125 0
44 57 79 83 -104 0
44 57 79 -83 104 0
44 57 -79 83 104 0
44 57 -79 -83 -104 0
44 -57 79 83 104 0
44 -57 79 -83 -104 0
44 -57 -79 83 -104 0
44 -57 -79 -83 104 0
-44 57 79 83 104 0
-44 57 79 -83 -104 0
-44 57 -79 83 -104 0
-44 57 -79 -83 104 0
-44 -57 79 83 -104 0
-44 -57 79 -83 104 0
-44 -57 -79 83 104 0
-44 -57 -79 -83 -104 0
52 73 80 121 125 0
52 73 80 -121 -125 0
52 73 -80 121 -125 0
52 73 -80 -121 125 0
52 -73 80 121 -125 0
52 -73 80 -121 125 0
52 -73 -80 121 125 0
52 -73 -80 -121 -125 0
-52 73 80 121 -125 0
-52 73 80 -121 125 0
-52 73 -80 121 125 0
-52 73 -80 -121 -125 0
-52 -73 80 121 125 0
-52 -73 80 -121 -125 0
-52 -73 -80 121 -125 0
-52 -73 -80 -121 125 0
19 26 32 114 117 0
19 26 32 -114 -117 0
19 26 -32 114 -117 0
19 26 -32 -114 117 0
19 -26 32 114 -117 0
19 -26 32 -114 117 0
19 -26 -32 114 117 0
19 -26 -32 -114 -117 0
-19 26 32 114 -117 0
-19 26 32 -114 117 0
-19 26 -32 114 117 0
-19 26 -32 -114 -117 0
-19 -26 32 114 117 0
-19 -26 32 -114 -117 0
-19 -26 -32 114 -117 0
-19 -26 -32 -114 117 0
15 27 70 92 -115 0
15 27 70 -92 115 0
15 27 -70 92 115 0
15 27 -70 -92 -115 0
15 -27 70 92 115 0
15 -27 70 -92 -115 0
15 -27 -70 92 -115 0
15 -27 -70 -92 115 0
-15 27 70 92 115 0
-15 27 70 -92 -115 0
-15 27 -70 92 -115 0
-15 27 -70 -92 115 0
-15 -27 70 92 -115 0
-15 -27 70 -92 115 0
-15 -27 -70 92 115 0
-15 -27 -70 -92 -115 0
10 45 49 81 -96 0
10 45 49 -81 96 0
10 45 -49 81 96 0
10 45 -49 -81 -96 0
10 -45 49 81 96 0
10 -45 49 -81 -96 0
10 -45 -49 81 -96 0
10 -45 -49 -81 96 0
-10 45 49 81 96 0
-10 45 49 -81 -96 0
-10 45 -49 81 -96 0
-10 45 -49 -81 96 0
-10 -45 49 81 -96 0
-10 -45 49 -81 96 0
-10 -45 -49 81 96 0
-10 -45 -49 -81 -96 0
